NAME : cgl_44.10914.tour
COMMENT : Length = 10914
COMMENT : Found by LKH-3 [Keld Helsgaun] Fri Nov  8 19:20:29 2024
TYPE : TOUR
DIMENSION : 44
TOUR_SECTION
30
31
33
25
35
41
43
37
42
40
38
36
39
44
1
6
5
4
3
2
9
10
11
8
7
12
14
15
13
17
16
18
19
20
21
22
23
34
24
29
26
28
27
32
-1
EOF
